
        $ From http://www.csplib.org/Problems/prob009/data/helmut.pdf
        $ Problem number 132
        $ Sequence length : 25
        language ESSENCE' 1.0
        letting sizemaster be 413
        letting sizes be sequence(5,7,17,20,34,38,39,48,56,57,59,60,64,65,70,72,75,81,105,106,110,125,148,153,155)
        